regression_itp/log-2023-02-20-10-22-36/part_bug.smt2.out
unsat
((and |hifrog::fun_end!0#3| (<= 2 (* -1 |getchar::#return_value!0#1|))))
